\ This file has been generated by DOcplex
\ ENCODING=ISO-8859-1
\Problem name: {self.PROBLEM.name} zerosum SOTA problem

Maximize
 obj: V
Subject To
 c1: V - 69.323223482834 a0_0 - 124.744847945012 a0_1 - 124.744847945012 a0_2
      <= 0
 c2: V - 124.744847945012 a0_0 - 99.726908690187 a0_1 - 156.711303443666 a0_2
      <= 0
 c3: V - 124.744847945012 a0_0 - 156.711303443666 a0_1 - 99.726908690187 a0_2
      <= 0
 c4: a0_0 + a0_1 + a0_2 = 1

Bounds
       a0_0 <= 1
       a0_1 <= 1
       a0_2 <= 1
       V Free
End
